;; translated from ./ctigar/NetBSD_loop_int.c.vmt
;; original benchmark available at: https://es-static.fbk.eu/people/griggio/ic3ia/index.html
;; author: Alberto Griggio <griggio@fbk.eu>
(set-logic HORN)
(declare-fun state (Bool Bool Bool Bool Bool Int Int Int Int Int Int Int Int Int) Bool)
(assert (forall ((|.s.0| Bool) (|.s.1.next| Bool) (|.s.0.next| Bool) (|.s.1| Bool) (|.s.2.next| Bool) (|.s.3.next| Bool) (|.s.4.next| Bool) (|main.glob3_pathlim_off.next| Int) (|main.glob3_pathlim_off| Int) (|maxpathlen.next| Int) (|maxpathlen| Int) (|main.glob3_dc.next| Int) (|main.glob3_dc| Int) (|main.buf_off.next| Int) (|main.buf_off| Int) (|main.glob3_pattern_off.next| Int) (|main.glob3_pattern_off| Int) (|main.glob3_pathbuf_off.next| Int) (|main.glob3_pathbuf_off| Int) (|main.pattern_off.next| Int) (|main.pattern_off| Int) (|main.bound_off.next| Int) (|main.bound_off| Int) (|main.glob3_pathend_off.next| Int) (|main.glob3_pathend_off| Int) (|.inputVar.0| Int) (|.s.2| Bool) (|.s.4| Bool) (|.s.3| Bool)) (=> (let ((.def_20 (not .s.4)))
(let ((.def_17 (not .s.3)))
(let ((.def_14 (not .s.2)))
(let ((.def_10 (not .s.1)))
(let ((.def_12 (and .def_10 .s.0)))
(let ((.def_15 (and .def_12 .def_14)))
(let ((.def_18 (and .def_15 .def_17)))
(let ((.def_21 (and .def_18 .def_20)))
.def_21)))))))) (state |.s.1| |.s.0| |.s.2| |.s.3| |.s.4| |main.glob3_pathend_off| |main.bound_off| |main.pattern_off| |main.glob3_pathbuf_off| |main.glob3_pattern_off| |main.buf_off| |main.glob3_dc| |maxpathlen| |main.glob3_pathlim_off|))))
(assert (forall ((|.s.0| Bool) (|.s.1.next| Bool) (|.s.0.next| Bool) (|.s.1| Bool) (|.s.2.next| Bool) (|.s.3.next| Bool) (|.s.4.next| Bool) (|main.glob3_pathlim_off.next| Int) (|main.glob3_pathlim_off| Int) (|maxpathlen.next| Int) (|maxpathlen| Int) (|main.glob3_dc.next| Int) (|main.glob3_dc| Int) (|main.buf_off.next| Int) (|main.buf_off| Int) (|main.glob3_pattern_off.next| Int) (|main.glob3_pattern_off| Int) (|main.glob3_pathbuf_off.next| Int) (|main.glob3_pathbuf_off| Int) (|main.pattern_off.next| Int) (|main.pattern_off| Int) (|main.bound_off.next| Int) (|main.bound_off| Int) (|main.glob3_pathend_off.next| Int) (|main.glob3_pathend_off| Int) (|.inputVar.0| Int) (|.s.2| Bool) (|.s.4| Bool) (|.s.3| Bool)) (=> (and (state |.s.1| |.s.0| |.s.2| |.s.3| |.s.4| |main.glob3_pathend_off| |main.bound_off| |main.pattern_off| |main.glob3_pathbuf_off| |main.glob3_pattern_off| |main.buf_off| |main.glob3_dc| |maxpathlen| |main.glob3_pathlim_off|) (let ((.def_76 (not .s.0)))
(let ((.def_10 (not .s.1)))
(let ((.def_77 (and .def_10 .def_76)))
(let ((.def_14 (not .s.2)))
(let ((.def_78 (and .def_14 .def_77)))
(let ((.def_17 (not .s.3)))
(let ((.def_235 (and .def_17 .def_78)))
(let ((.def_20 (not .s.4)))
(let ((.def_501 (and .def_20 .def_235)))
(let ((.def_502 (not .def_501)))
(let ((.def_61 (not .s.0.next)))
(let ((.def_59 (not .s.1.next)))
(let ((.def_62 (and .def_59 .def_61)))
(let ((.def_57 (not .s.2.next)))
(let ((.def_63 (and .def_57 .def_62)))
(let ((.def_55 (not .s.3.next)))
(let ((.def_64 (and .def_55 .def_63)))
(let ((.def_53 (not .s.4.next)))
(let ((.def_65 (and .def_53 .def_64)))
(let ((.def_51 (= main.glob3_pathlim_off main.glob3_pathlim_off.next)))
(let ((.def_66 (and .def_51 .def_65)))
(let ((.def_48 (= maxpathlen maxpathlen.next)))
(let ((.def_67 (and .def_48 .def_66)))
(let ((.def_45 (= main.glob3_dc main.glob3_dc.next)))
(let ((.def_68 (and .def_45 .def_67)))
(let ((.def_42 (= main.buf_off main.buf_off.next)))
(let ((.def_69 (and .def_42 .def_68)))
(let ((.def_39 (= main.glob3_pattern_off main.glob3_pattern_off.next)))
(let ((.def_70 (and .def_39 .def_69)))
(let ((.def_36 (= main.glob3_pathbuf_off main.glob3_pathbuf_off.next)))
(let ((.def_71 (and .def_36 .def_70)))
(let ((.def_33 (= main.pattern_off main.pattern_off.next)))
(let ((.def_72 (and .def_33 .def_71)))
(let ((.def_30 (= main.bound_off main.bound_off.next)))
(let ((.def_73 (and .def_30 .def_72)))
(let ((.def_27 (= main.glob3_pathend_off main.glob3_pathend_off.next)))
(let ((.def_74 (and .def_27 .def_73)))
(let ((.def_503 (or .def_74 .def_502)))
(let ((.def_163 (and .def_59 .s.0.next)))
(let ((.def_238 (and .def_57 .def_163)))
(let ((.def_377 (and .s.3.next .def_238)))
(let ((.def_490 (and .s.4.next .def_377)))
(let ((.def_491 (and .def_51 .def_490)))
(let ((.def_492 (and .def_48 .def_491)))
(let ((.def_493 (and .def_45 .def_492)))
(let ((.def_494 (and .def_42 .def_493)))
(let ((.def_495 (and .def_39 .def_494)))
(let ((.def_496 (and .def_36 .def_495)))
(let ((.def_497 (and .def_33 .def_496)))
(let ((.def_498 (and .def_30 .def_497)))
(let ((.def_499 (and .def_27 .def_498)))
(let ((.def_473 (<= maxpathlen 0)))
(let ((.def_12 (and .def_10 .s.0)))
(let ((.def_15 (and .def_12 .def_14)))
(let ((.def_18 (and .def_15 .def_17)))
(let ((.def_21 (and .def_18 .def_20)))
(let ((.def_488 (and .def_21 .def_473)))
(let ((.def_489 (not .def_488)))
(let ((.def_500 (or .def_489 .def_499)))
(let ((.def_504 (and .def_500 .def_503)))
(let ((.def_118 (and .s.1.next .def_61)))
(let ((.def_119 (and .def_57 .def_118)))
(let ((.def_220 (and .def_55 .def_119)))
(let ((.def_477 (and .def_53 .def_220)))
(let ((.def_478 (and .def_51 .def_477)))
(let ((.def_479 (and .def_48 .def_478)))
(let ((.def_480 (and .def_45 .def_479)))
(let ((.def_481 (and .def_42 .def_480)))
(let ((.def_482 (and .def_39 .def_481)))
(let ((.def_483 (and .def_36 .def_482)))
(let ((.def_484 (and .def_33 .def_483)))
(let ((.def_485 (and .def_30 .def_484)))
(let ((.def_486 (and .def_27 .def_485)))
(let ((.def_474 (not .def_473)))
(let ((.def_475 (and .def_21 .def_474)))
(let ((.def_476 (not .def_475)))
(let ((.def_487 (or .def_476 .def_486)))
(let ((.def_505 (and .def_487 .def_504)))
(let ((.def_99 (and .s.1.next .s.0.next)))
(let ((.def_196 (and .def_57 .def_99)))
(let ((.def_197 (and .def_55 .def_196)))
(let ((.def_462 (and .def_53 .def_197)))
(let ((.def_461 (= main.buf_off.next 0)))
(let ((.def_463 (and .def_461 .def_462)))
(let ((.def_464 (and .def_51 .def_463)))
(let ((.def_465 (and .def_48 .def_464)))
(let ((.def_466 (and .def_45 .def_465)))
(let ((.def_467 (and .def_39 .def_466)))
(let ((.def_468 (and .def_36 .def_467)))
(let ((.def_469 (and .def_33 .def_468)))
(let ((.def_470 (and .def_30 .def_469)))
(let ((.def_471 (and .def_27 .def_470)))
(let ((.def_113 (and .s.1 .def_76)))
(let ((.def_192 (and .def_14 .def_113)))
(let ((.def_193 (and .def_17 .def_192)))
(let ((.def_459 (and .def_20 .def_193)))
(let ((.def_460 (not .def_459)))
(let ((.def_472 (or .def_460 .def_471)))
(let ((.def_506 (and .def_472 .def_505)))
(let ((.def_179 (and .s.2.next .def_62)))
(let ((.def_180 (and .def_55 .def_179)))
(let ((.def_448 (and .def_53 .def_180)))
(let ((.def_447 (= main.pattern_off.next 0)))
(let ((.def_449 (and .def_447 .def_448)))
(let ((.def_450 (and .def_51 .def_449)))
(let ((.def_451 (and .def_48 .def_450)))
(let ((.def_452 (and .def_45 .def_451)))
(let ((.def_453 (and .def_42 .def_452)))
(let ((.def_454 (and .def_39 .def_453)))
(let ((.def_455 (and .def_36 .def_454)))
(let ((.def_456 (and .def_30 .def_455)))
(let ((.def_457 (and .def_27 .def_456)))
(let ((.def_94 (and .s.1 .s.0)))
(let ((.def_154 (and .def_14 .def_94)))
(let ((.def_155 (and .def_17 .def_154)))
(let ((.def_445 (and .def_20 .def_155)))
(let ((.def_446 (not .def_445)))
(let ((.def_458 (or .def_446 .def_457)))
(let ((.def_507 (and .def_458 .def_506)))
(let ((.def_164 (and .s.2.next .def_163)))
(let ((.def_165 (and .def_55 .def_164)))
(let ((.def_434 (and .def_53 .def_165)))
(let ((.def_433 (= main.bound_off.next maxpathlen)))
(let ((.def_435 (and .def_433 .def_434)))
(let ((.def_436 (and .def_51 .def_435)))
(let ((.def_437 (and .def_48 .def_436)))
(let ((.def_438 (and .def_45 .def_437)))
(let ((.def_439 (and .def_42 .def_438)))
(let ((.def_440 (and .def_39 .def_439)))
(let ((.def_441 (and .def_36 .def_440)))
(let ((.def_442 (and .def_33 .def_441)))
(let ((.def_443 (and .def_27 .def_442)))
(let ((.def_149 (and .s.2 .def_77)))
(let ((.def_150 (and .def_17 .def_149)))
(let ((.def_431 (and .def_20 .def_150)))
(let ((.def_432 (not .def_431)))
(let ((.def_444 (or .def_432 .def_443)))
(let ((.def_508 (and .def_444 .def_507)))
(let ((.def_136 (and .s.2.next .def_118)))
(let ((.def_137 (and .def_55 .def_136)))
(let ((.def_420 (and .def_53 .def_137)))
(let ((.def_419 (= main.glob3_pathbuf_off.next main.buf_off)))
(let ((.def_421 (and .def_419 .def_420)))
(let ((.def_422 (and .def_51 .def_421)))
(let ((.def_423 (and .def_48 .def_422)))
(let ((.def_424 (and .def_45 .def_423)))
(let ((.def_425 (and .def_42 .def_424)))
(let ((.def_426 (and .def_39 .def_425)))
(let ((.def_427 (and .def_33 .def_426)))
(let ((.def_428 (and .def_30 .def_427)))
(let ((.def_429 (and .def_27 .def_428)))
(let ((.def_132 (and .def_12 .s.2)))
(let ((.def_133 (and .def_17 .def_132)))
(let ((.def_417 (and .def_20 .def_133)))
(let ((.def_418 (not .def_417)))
(let ((.def_430 (or .def_418 .def_429)))
(let ((.def_509 (and .def_430 .def_508)))
(let ((.def_100 (and .s.2.next .def_99)))
(let ((.def_101 (and .def_55 .def_100)))
(let ((.def_406 (and .def_53 .def_101)))
(let ((.def_405 (= main.glob3_pathend_off.next main.buf_off)))
(let ((.def_407 (and .def_405 .def_406)))
(let ((.def_408 (and .def_51 .def_407)))
(let ((.def_409 (and .def_48 .def_408)))
(let ((.def_410 (and .def_45 .def_409)))
(let ((.def_411 (and .def_42 .def_410)))
(let ((.def_412 (and .def_39 .def_411)))
(let ((.def_413 (and .def_36 .def_412)))
(let ((.def_414 (and .def_33 .def_413)))
(let ((.def_415 (and .def_30 .def_414)))
(let ((.def_114 (and .s.2 .def_113)))
(let ((.def_115 (and .def_17 .def_114)))
(let ((.def_403 (and .def_20 .def_115)))
(let ((.def_404 (not .def_403)))
(let ((.def_416 (or .def_404 .def_415)))
(let ((.def_510 (and .def_416 .def_509)))
(let ((.def_82 (and .s.3.next .def_63)))
(let ((.def_392 (and .def_53 .def_82)))
(let ((.def_391 (= main.bound_off main.glob3_pathlim_off.next)))
(let ((.def_393 (and .def_391 .def_392)))
(let ((.def_394 (and .def_48 .def_393)))
(let ((.def_395 (and .def_45 .def_394)))
(let ((.def_396 (and .def_42 .def_395)))
(let ((.def_397 (and .def_39 .def_396)))
(let ((.def_398 (and .def_36 .def_397)))
(let ((.def_399 (and .def_33 .def_398)))
(let ((.def_400 (and .def_30 .def_399)))
(let ((.def_401 (and .def_27 .def_400)))
(let ((.def_95 (and .s.2 .def_94)))
(let ((.def_96 (and .def_17 .def_95)))
(let ((.def_389 (and .def_20 .def_96)))
(let ((.def_390 (not .def_389)))
(let ((.def_402 (or .def_390 .def_401)))
(let ((.def_511 (and .def_402 .def_510)))
(let ((.def_378 (and .def_53 .def_377)))
(let ((.def_376 (= main.pattern_off main.glob3_pattern_off.next)))
(let ((.def_379 (and .def_376 .def_378)))
(let ((.def_380 (and .def_51 .def_379)))
(let ((.def_381 (and .def_48 .def_380)))
(let ((.def_382 (and .def_45 .def_381)))
(let ((.def_383 (and .def_42 .def_382)))
(let ((.def_384 (and .def_36 .def_383)))
(let ((.def_385 (and .def_33 .def_384)))
(let ((.def_386 (and .def_30 .def_385)))
(let ((.def_387 (and .def_27 .def_386)))
(let ((.def_79 (and .s.3 .def_78)))
(let ((.def_374 (and .def_20 .def_79)))
(let ((.def_375 (not .def_374)))
(let ((.def_388 (or .def_375 .def_387)))
(let ((.def_512 (and .def_388 .def_511)))
(let ((.def_363 (= main.glob3_dc.next 0)))
(let ((.def_120 (and .s.3.next .def_119)))
(let ((.def_121 (and .def_53 .def_120)))
(let ((.def_364 (and .def_121 .def_363)))
(let ((.def_365 (and .def_51 .def_364)))
(let ((.def_366 (and .def_48 .def_365)))
(let ((.def_367 (and .def_42 .def_366)))
(let ((.def_368 (and .def_39 .def_367)))
(let ((.def_369 (and .def_36 .def_368)))
(let ((.def_370 (and .def_33 .def_369)))
(let ((.def_371 (and .def_30 .def_370)))
(let ((.def_372 (and .def_27 .def_371)))
(let ((.def_22 (and .def_15 .s.3)))
(let ((.def_361 (and .def_20 .def_22)))
(let ((.def_362 (not .def_361)))
(let ((.def_373 (or .def_362 .def_372)))
(let ((.def_513 (and .def_373 .def_512)))
(let ((.def_349 (and .s.3.next .def_196)))
(let ((.def_350 (and .def_53 .def_349)))
(let ((.def_351 (and .def_51 .def_350)))
(let ((.def_352 (and .def_48 .def_351)))
(let ((.def_353 (and .def_45 .def_352)))
(let ((.def_354 (and .def_42 .def_353)))
(let ((.def_355 (and .def_39 .def_354)))
(let ((.def_356 (and .def_36 .def_355)))
(let ((.def_357 (and .def_33 .def_356)))
(let ((.def_358 (and .def_30 .def_357)))
(let ((.def_359 (and .def_27 .def_358)))
(let ((.def_346 (and .s.3 .def_192)))
(let ((.def_347 (and .def_20 .def_346)))
(let ((.def_348 (not .def_347)))
(let ((.def_360 (or .def_348 .def_359)))
(let ((.def_514 (and .def_360 .def_513)))
(let ((.def_334 (and .s.3.next .def_179)))
(let ((.def_335 (and .def_53 .def_334)))
(let ((.def_336 (and .def_51 .def_335)))
(let ((.def_337 (and .def_48 .def_336)))
(let ((.def_338 (and .def_45 .def_337)))
(let ((.def_339 (and .def_42 .def_338)))
(let ((.def_340 (and .def_39 .def_339)))
(let ((.def_341 (and .def_36 .def_340)))
(let ((.def_342 (and .def_33 .def_341)))
(let ((.def_343 (and .def_30 .def_342)))
(let ((.def_344 (and .def_27 .def_343)))
(let ((.def_313 (* (- 1) main.glob3_pathlim_off)))
(let ((.def_314 (+ main.glob3_dc .def_313)))
(let ((.def_315 (+ main.glob3_pathend_off .def_314)))
(let ((.def_316 (<= 0 .def_315)))
(let ((.def_308 (and .s.3 .def_154)))
(let ((.def_309 (and .def_20 .def_308)))
(let ((.def_332 (and .def_309 .def_316)))
(let ((.def_333 (not .def_332)))
(let ((.def_345 (or .def_333 .def_344)))
(let ((.def_515 (and .def_345 .def_514)))
(let ((.def_320 (and .s.3.next .def_136)))
(let ((.def_321 (and .def_53 .def_320)))
(let ((.def_322 (and .def_51 .def_321)))
(let ((.def_323 (and .def_48 .def_322)))
(let ((.def_324 (and .def_45 .def_323)))
(let ((.def_325 (and .def_42 .def_324)))
(let ((.def_326 (and .def_39 .def_325)))
(let ((.def_327 (and .def_36 .def_326)))
(let ((.def_328 (and .def_33 .def_327)))
(let ((.def_329 (and .def_30 .def_328)))
(let ((.def_330 (and .def_27 .def_329)))
(let ((.def_317 (not .def_316)))
(let ((.def_318 (and .def_309 .def_317)))
(let ((.def_319 (not .def_318)))
(let ((.def_331 (or .def_319 .def_330)))
(let ((.def_516 (and .def_331 .def_515)))
(let ((.def_296 (and .s.3.next .def_164)))
(let ((.def_297 (and .def_53 .def_296)))
(let ((.def_298 (and .def_51 .def_297)))
(let ((.def_299 (and .def_48 .def_298)))
(let ((.def_300 (and .def_45 .def_299)))
(let ((.def_301 (and .def_42 .def_300)))
(let ((.def_302 (and .def_39 .def_301)))
(let ((.def_303 (and .def_36 .def_302)))
(let ((.def_304 (and .def_33 .def_303)))
(let ((.def_305 (and .def_30 .def_304)))
(let ((.def_306 (and .def_27 .def_305)))
(let ((.def_293 (and .s.3 .def_149)))
(let ((.def_294 (and .def_20 .def_293)))
(let ((.def_295 (not .def_294)))
(let ((.def_307 (or .def_295 .def_306)))
(let ((.def_517 (and .def_307 .def_516)))
(let ((.def_289 (and .s.3 .def_132)))
(let ((.def_290 (and .def_20 .def_289)))
(let ((.def_291 (not .def_290)))
(let ((.def_292 (or .def_74 .def_291)))
(let ((.def_518 (and .def_292 .def_517)))
(let ((.def_277 (and .s.3.next .def_100)))
(let ((.def_278 (and .def_53 .def_277)))
(let ((.def_274 (* (- 1) main.glob3_dc.next)))
(let ((.def_275 (+ main.glob3_dc .def_274)))
(let ((.def_276 (= .def_275 (- 1))))
(let ((.def_279 (and .def_276 .def_278)))
(let ((.def_280 (and .def_51 .def_279)))
(let ((.def_281 (and .def_48 .def_280)))
(let ((.def_282 (and .def_42 .def_281)))
(let ((.def_283 (and .def_39 .def_282)))
(let ((.def_284 (and .def_36 .def_283)))
(let ((.def_285 (and .def_33 .def_284)))
(let ((.def_286 (and .def_30 .def_285)))
(let ((.def_287 (and .def_27 .def_286)))
(let ((.def_271 (and .s.3 .def_114)))
(let ((.def_272 (and .def_20 .def_271)))
(let ((.def_273 (not .def_272)))
(let ((.def_288 (or .def_273 .def_287)))
(let ((.def_519 (and .def_288 .def_518)))
(let ((.def_260 (and .s.4.next .def_64)))
(let ((.def_261 (and .def_51 .def_260)))
(let ((.def_262 (and .def_48 .def_261)))
(let ((.def_263 (and .def_45 .def_262)))
(let ((.def_264 (and .def_42 .def_263)))
(let ((.def_265 (and .def_39 .def_264)))
(let ((.def_266 (and .def_36 .def_265)))
(let ((.def_267 (and .def_33 .def_266)))
(let ((.def_268 (and .def_30 .def_267)))
(let ((.def_269 (and .def_27 .def_268)))
(let ((.def_253 (<= 0 main.glob3_dc)))
(let ((.def_251 (and .s.3 .def_95)))
(let ((.def_252 (and .def_20 .def_251)))
(let ((.def_258 (and .def_252 .def_253)))
(let ((.def_259 (not .def_258)))
(let ((.def_270 (or .def_259 .def_269)))
(let ((.def_520 (and .def_270 .def_519)))
(let ((.def_254 (not .def_253)))
(let ((.def_255 (and .def_252 .def_254)))
(let ((.def_256 (not .def_255)))
(let ((.def_83 (and .s.4.next .def_82)))
(let ((.def_84 (and .def_51 .def_83)))
(let ((.def_85 (and .def_48 .def_84)))
(let ((.def_86 (and .def_45 .def_85)))
(let ((.def_87 (and .def_42 .def_86)))
(let ((.def_88 (and .def_39 .def_87)))
(let ((.def_89 (and .def_36 .def_88)))
(let ((.def_90 (and .def_33 .def_89)))
(let ((.def_91 (and .def_30 .def_90)))
(let ((.def_92 (and .def_27 .def_91)))
(let ((.def_257 (or .def_92 .def_256)))
(let ((.def_521 (and .def_257 .def_520)))
(let ((.def_239 (and .def_55 .def_238)))
(let ((.def_240 (and .s.4.next .def_239)))
(let ((.def_241 (and .def_51 .def_240)))
(let ((.def_242 (and .def_48 .def_241)))
(let ((.def_243 (and .def_45 .def_242)))
(let ((.def_244 (and .def_42 .def_243)))
(let ((.def_245 (and .def_39 .def_244)))
(let ((.def_246 (and .def_36 .def_245)))
(let ((.def_247 (and .def_33 .def_246)))
(let ((.def_248 (and .def_30 .def_247)))
(let ((.def_249 (and .def_27 .def_248)))
(let ((.def_236 (and .s.4 .def_235)))
(let ((.def_237 (not .def_236)))
(let ((.def_250 (or .def_237 .def_249)))
(let ((.def_522 (and .def_250 .def_521)))
(let ((.def_214 (* (- 1) maxpathlen)))
(let ((.def_215 (+ main.glob3_dc .def_214)))
(let ((.def_216 (<= 1 .def_215)))
(let ((.def_209 (and .def_18 .s.4)))
(let ((.def_232 (and .def_209 .def_216)))
(let ((.def_233 (not .def_232)))
(let ((.def_102 (and .s.4.next .def_101)))
(let ((.def_103 (and .def_51 .def_102)))
(let ((.def_104 (and .def_48 .def_103)))
(let ((.def_105 (and .def_45 .def_104)))
(let ((.def_106 (and .def_42 .def_105)))
(let ((.def_107 (and .def_39 .def_106)))
(let ((.def_108 (and .def_36 .def_107)))
(let ((.def_109 (and .def_33 .def_108)))
(let ((.def_110 (and .def_30 .def_109)))
(let ((.def_111 (and .def_27 .def_110)))
(let ((.def_234 (or .def_111 .def_233)))
(let ((.def_523 (and .def_234 .def_522)))
(let ((.def_221 (and .s.4.next .def_220)))
(let ((.def_222 (and .def_51 .def_221)))
(let ((.def_223 (and .def_48 .def_222)))
(let ((.def_224 (and .def_45 .def_223)))
(let ((.def_225 (and .def_42 .def_224)))
(let ((.def_226 (and .def_39 .def_225)))
(let ((.def_227 (and .def_36 .def_226)))
(let ((.def_228 (and .def_33 .def_227)))
(let ((.def_229 (and .def_30 .def_228)))
(let ((.def_230 (and .def_27 .def_229)))
(let ((.def_217 (not .def_216)))
(let ((.def_218 (and .def_209 .def_217)))
(let ((.def_219 (not .def_218)))
(let ((.def_231 (or .def_219 .def_230)))
(let ((.def_524 (and .def_231 .def_523)))
(let ((.def_198 (and .s.4.next .def_197)))
(let ((.def_199 (and .def_51 .def_198)))
(let ((.def_200 (and .def_48 .def_199)))
(let ((.def_201 (and .def_45 .def_200)))
(let ((.def_202 (and .def_42 .def_201)))
(let ((.def_203 (and .def_39 .def_202)))
(let ((.def_204 (and .def_36 .def_203)))
(let ((.def_205 (and .def_33 .def_204)))
(let ((.def_206 (and .def_30 .def_205)))
(let ((.def_207 (and .def_27 .def_206)))
(let ((.def_194 (and .s.4 .def_193)))
(let ((.def_195 (not .def_194)))
(let ((.def_208 (or .def_195 .def_207)))
(let ((.def_525 (and .def_208 .def_524)))
(let ((.def_181 (and .s.4.next .def_180)))
(let ((.def_182 (and .def_51 .def_181)))
(let ((.def_183 (and .def_48 .def_182)))
(let ((.def_184 (and .def_45 .def_183)))
(let ((.def_185 (and .def_42 .def_184)))
(let ((.def_186 (and .def_39 .def_185)))
(let ((.def_187 (and .def_36 .def_186)))
(let ((.def_188 (and .def_33 .def_187)))
(let ((.def_189 (and .def_30 .def_188)))
(let ((.def_190 (and .def_27 .def_189)))
(let ((.def_159 (= .inputVar.0 0)))
(let ((.def_156 (and .s.4 .def_155)))
(let ((.def_177 (and .def_156 .def_159)))
(let ((.def_178 (not .def_177)))
(let ((.def_191 (or .def_178 .def_190)))
(let ((.def_526 (and .def_191 .def_525)))
(let ((.def_166 (and .s.4.next .def_165)))
(let ((.def_167 (and .def_51 .def_166)))
(let ((.def_168 (and .def_48 .def_167)))
(let ((.def_169 (and .def_45 .def_168)))
(let ((.def_170 (and .def_42 .def_169)))
(let ((.def_171 (and .def_39 .def_170)))
(let ((.def_172 (and .def_36 .def_171)))
(let ((.def_173 (and .def_33 .def_172)))
(let ((.def_174 (and .def_30 .def_173)))
(let ((.def_175 (and .def_27 .def_174)))
(let ((.def_160 (not .def_159)))
(let ((.def_161 (and .def_156 .def_160)))
(let ((.def_162 (not .def_161)))
(let ((.def_176 (or .def_162 .def_175)))
(let ((.def_527 (and .def_176 .def_526)))
(let ((.def_151 (and .s.4 .def_150)))
(let ((.def_152 (not .def_151)))
(let ((.def_153 (or .def_74 .def_152)))
(let ((.def_528 (and .def_153 .def_527)))
(let ((.def_138 (and .s.4.next .def_137)))
(let ((.def_139 (and .def_51 .def_138)))
(let ((.def_140 (and .def_48 .def_139)))
(let ((.def_141 (and .def_45 .def_140)))
(let ((.def_142 (and .def_42 .def_141)))
(let ((.def_143 (and .def_39 .def_142)))
(let ((.def_144 (and .def_36 .def_143)))
(let ((.def_145 (and .def_33 .def_144)))
(let ((.def_146 (and .def_30 .def_145)))
(let ((.def_147 (and .def_27 .def_146)))
(let ((.def_134 (and .s.4 .def_133)))
(let ((.def_135 (not .def_134)))
(let ((.def_148 (or .def_135 .def_147)))
(let ((.def_529 (and .def_148 .def_528)))
(let ((.def_122 (and .def_51 .def_121)))
(let ((.def_123 (and .def_48 .def_122)))
(let ((.def_124 (and .def_45 .def_123)))
(let ((.def_125 (and .def_42 .def_124)))
(let ((.def_126 (and .def_39 .def_125)))
(let ((.def_127 (and .def_36 .def_126)))
(let ((.def_128 (and .def_33 .def_127)))
(let ((.def_129 (and .def_30 .def_128)))
(let ((.def_130 (and .def_27 .def_129)))
(let ((.def_116 (and .s.4 .def_115)))
(let ((.def_117 (not .def_116)))
(let ((.def_131 (or .def_117 .def_130)))
(let ((.def_530 (and .def_131 .def_529)))
(let ((.def_97 (and .s.4 .def_96)))
(let ((.def_98 (not .def_97)))
(let ((.def_112 (or .def_98 .def_111)))
(let ((.def_531 (and .def_112 .def_530)))
(let ((.def_80 (and .s.4 .def_79)))
(let ((.def_81 (not .def_80)))
(let ((.def_93 (or .def_81 .def_92)))
(let ((.def_532 (and .def_93 .def_531)))
(let ((.def_23 (and .s.4 .def_22)))
(let ((.def_24 (not .def_23)))
(let ((.def_75 (or .def_24 .def_74)))
(let ((.def_533 (and .def_75 .def_532)))
.def_533))))))))))))))))))))))))))))))))))))))))))))))))))))))))))))))))))))))))))))))))))))))))))))))))))))))))))))))))))))))))))))))))))))))))))))))))))))))))))))))))))))))))))))))))))))))))))))))))))))))))))))))))))))))))))))))))))))))))))))))))))))))))))))))))))))))))))))))))))))))))))))))))))))))))))))))))))))))))))))))))))))))))))))))))))))))))))))))))))))))))))))))))))))))))))))))))))))))))))))))))))))))))))))))))))))))))))))))))))))))))))))))))))))))))))))))))))))))))))))))))))))))))) (state |.s.1.next| |.s.0.next| |.s.2.next| |.s.3.next| |.s.4.next| |main.glob3_pathend_off.next| |main.bound_off.next| |main.pattern_off.next| |main.glob3_pathbuf_off.next| |main.glob3_pattern_off.next| |main.buf_off.next| |main.glob3_dc.next| |maxpathlen.next| |main.glob3_pathlim_off.next|))))
(assert (forall ((|.s.0| Bool) (|.s.1.next| Bool) (|.s.0.next| Bool) (|.s.1| Bool) (|.s.2.next| Bool) (|.s.3.next| Bool) (|.s.4.next| Bool) (|main.glob3_pathlim_off.next| Int) (|main.glob3_pathlim_off| Int) (|maxpathlen.next| Int) (|maxpathlen| Int) (|main.glob3_dc.next| Int) (|main.glob3_dc| Int) (|main.buf_off.next| Int) (|main.buf_off| Int) (|main.glob3_pattern_off.next| Int) (|main.glob3_pattern_off| Int) (|main.glob3_pathbuf_off.next| Int) (|main.glob3_pathbuf_off| Int) (|main.pattern_off.next| Int) (|main.pattern_off| Int) (|main.bound_off.next| Int) (|main.bound_off| Int) (|main.glob3_pathend_off.next| Int) (|main.glob3_pathend_off| Int) (|.inputVar.0| Int) (|.s.2| Bool) (|.s.4| Bool) (|.s.3| Bool)) (=> (state |.s.1| |.s.0| |.s.2| |.s.3| |.s.4| |main.glob3_pathend_off| |main.bound_off| |main.pattern_off| |main.glob3_pathbuf_off| |main.glob3_pattern_off| |main.buf_off| |main.glob3_dc| |maxpathlen| |main.glob3_pathlim_off|) (let ((.def_94 (and .s.1 .s.0)))
(let ((.def_95 (and .s.2 .def_94)))
(let ((.def_17 (not .s.3)))
(let ((.def_96 (and .def_17 .def_95)))
(let ((.def_97 (and .s.4 .def_96)))
(let ((.def_98 (not .def_97)))
(let ((.def_76 (not .s.0)))
(let ((.def_10 (not .s.1)))
(let ((.def_77 (and .def_10 .def_76)))
(let ((.def_14 (not .s.2)))
(let ((.def_78 (and .def_14 .def_77)))
(let ((.def_79 (and .s.3 .def_78)))
(let ((.def_80 (and .s.4 .def_79)))
(let ((.def_81 (not .def_80)))
(let ((.def_534 (and .def_81 .def_98)))
.def_534))))))))))))))))))
(check-sat)
